500
    1    45    45
    2    99    99
    3    93    93
    4    96    96
    5    67    67
    6    29    29
    7   100   100
    8    65    65
    9    41    41
   10    23    23
   11    91    91
   12     2     2
   13    70    70
   14    99    99
   15    81    81
   16     1     1
   17    46    46
   18    96    96
   19    59    59
   20     4     4
   21    57    57
   22     4     4
   23   100   100
   24    20    20
   25    93    93
   26     8     8
   27    61    61
   28    27    27
   29     6     6
   30    48    48
   31    54    54
   32    17    17
   33    10    10
   34    11    11
   35    25    25
   36    15    15
   37    58    58
   38    20    20
   39     7     7
   40    79    79
   41    14    14
   42    91    91
   43    13    13
   44     4     4
   45     1     1
   46     1     1
   47    96    96
   48    93    93
   49    50    50
   50    46    46
   51    21    21
   52    44    44
   53    95    95
   54    73    73
   55    17    17
   56    21    21
   57    39    39
   58    63    63
   59     4     4
   60    94    94
   61    95    95
   62    86    86
   63    41    41
   64     5     5
   65    25    25
   66     5     5
   67    14    14
   68    12    12
   69    45    45
   70    41    41
   71    62    62
   72    70    70
   73    49    49
   74    50    50
   75    18    18
   76   100   100
   77    37    37
   78    64    64
   79    76    76
   80    97    97
   81    16    16
   82    13    13
   83    23    23
   84    95    95
   85    47    47
   86    39    39
   87    59    59
   88    48    48
   89    16    16
   90     4     4
   91    44    44
   92    68    68
   93    95    95
   94    58    58
   95    79    79
   96    34    34
   97    16    16
   98    78    78
   99    57    57
  100    27    27
  101    92    92
  102   100   100
  103    97    97
  104    80    80
  105    34    34
  106    24    24
  107     5     5
  108     6     6
  109    70    70
  110    53    53
  111    57    57
  112    19    19
  113    94    94
  114    24    24
  115    48    48
  116    29    29
  117     9     9
  118    69    69
  119    39    39
  120    36    36
  121    98    98
  122    45    45
  123    32    32
  124    35    35
  125    45    45
  126    71    71
  127    68    68
  128    39    39
  129     9     9
  130    12    12
  131    69    69
  132    34    34
  133     2     2
  134    66    66
  135    68    68
  136    11    11
  137    17    17
  138    70    70
  139    11    11
  140    15    15
  141    19    19
  142    78    78
  143    19    19
  144     4     4
  145     3     3
  146    70    70
  147    40    40
  148    79    79
  149    17    17
  150   100   100
  151    86    86
  152    87    87
  153    60    60
  154    35    35
  155    56    56
  156    22    22
  157    90    90
  158    13    13
  159    20    20
  160    21    21
  161    27    27
  162    76    76
  163    39    39
  164    79    79
  165    72    72
  166     3     3
  167    55    55
  168    87    87
  169    55    55
  170    14    14
  171    79    79
  172    82    82
  173    29    29
  174    23    23
  175    81    81
  176    88    88
  177     7     7
  178    93    93
  179    56    56
  180   100   100
  181    62    62
  182    27    27
  183    46    46
  184    55    55
  185    66    66
  186    87    87
  187    65    65
  188    62    62
  189    65    65
  190    65    65
  191    26    26
  192    72    72
  193    18    18
  194    78    78
  195    98    98
  196    69    69
  197    93    93
  198    38    38
  199     5     5
  200    46    46
  201    62    62
  202    82    82
  203    17    17
  204    15    15
  205    55    55
  206    36    36
  207    37    37
  208     3     3
  209    26    26
  210    56    56
  211     3     3
  212    72    72
  213    76    76
  214    55    55
  215   100   100
  216    42    42
  217    28    28
  218    19    19
  219    98    98
  220    62    62
  221    84    84
  222     3     3
  223    96    96
  224    23    23
  225    42    42
  226    99    99
  227    34    34
  228    45    45
  229    62    62
  230    87    87
  231    20    20
  232    70    70
  233    12    12
  234    72    72
  235     6     6
  236    22    22
  237    98    98
  238    11    11
  239    62    62
  240    60    60
  241    25    25
  242    39    39
  243    82    82
  244    84    84
  245    33    33
  246     3     3
  247    48    48
  248    68    68
  249    54    54
  250    53    53
  251    80    80
  252    98    98
  253    73    73
  254    74    74
  255    97    97
  256    51    51
  257    76    76
  258    65    65
  259    60    60
  260    74    74
  261    47    47
  262    64    64
  263    78    78
  264    96    96
  265    76    76
  266    61    61
  267    17    17
  268    12    12
  269    70    70
  270    31    31
  271    91    91
  272    65    65
  273    26    26
  274    22    22
  275    56    56
  276    55    55
  277    23    23
  278    60    60
  279    29    29
  280    79    79
  281    76    76
  282    27    27
  283    62    62
  284    62    62
  285     8     8
  286    43    43
  287    68    68
  288    73    73
  289    74    74
  290    25    25
  291    99    99
  292    16    16
  293     3     3
  294    26    26
  295    24    24
  296    52    52
  297     6     6
  298    38    38
  299    95    95
  300    44    44
  301    82    82
  302    34    34
  303    38    38
  304    60    60
  305    51    51
  306    73    73
  307    17    17
  308    29    29
  309    39    39
  310    54    54
  311    61    61
  312    37    37
  313    27    27
  314    47    47
  315    68    68
  316    82    82
  317     3     3
  318    25    25
  319    58    58
  320    82    82
  321    70    70
  322    44    44
  323    96    96
  324     7     7
  325    63    63
  326    23    23
  327    71    71
  328    94    94
  329    34    34
  330    94    94
  331    95    95
  332    78    78
  333    56    56
  334     8     8
  335    21    21
  336    97    97
  337    87    87
  338    35    35
  339    10    10
  340    30    30
  341    36    36
  342    64    64
  343    43    43
  344    71    71
  345    18    18
  346    23    23
  347    15    15
  348    15    15
  349    92    92
  350     8     8
  351    44    44
  352    81    81
  353     3     3
  354   100   100
  355    74    74
  356    19    19
  357    99    99
  358    83    83
  359    81    81
  360    70    70
  361    36    36
  362    44    44
  363    90    90
  364    47    47
  365    21    21
  366    62    62
  367    73    73
  368    54    54
  369    38    38
  370    74    74
  371    14    14
  372    67    67
  373    59    59
  374    50    50
  375    98    98
  376    85    85
  377    41    41
  378    41    41
  379    18    18
  380    32    32
  381    15    15
  382    62    62
  383    48    48
  384    13    13
  385    45    45
  386    23    23
  387     1     1
  388    97    97
  389    30    30
  390    37    37
  391    63    63
  392    91    91
  393    21    21
  394    10    10
  395    27    27
  396     5     5
  397    56    56
  398    60    60
  399    42    42
  400    17    17
  401    92    92
  402    21    21
  403     2     2
  404    51    51
  405    84    84
  406    25    25
  407    92    92
  408    27    27
  409    20    20
  410     3     3
  411    50    50
  412     2     2
  413     1     1
  414    16    16
  415    95    95
  416    69    69
  417    72    72
  418    63    63
  419    46    46
  420    96    96
  421    57    57
  422     6     6
  423    89    89
  424    46    46
  425   100   100
  426    82    82
  427    42    42
  428    54    54
  429    63    63
  430    89    89
  431    88    88
  432     4     4
  433    29    29
  434    60    60
  435    13    13
  436    86    86
  437    30    30
  438    45    45
  439    43    43
  440    28    28
  441    23    23
  442    79    79
  443    90    90
  444    16    16
  445    50    50
  446    17    17
  447    53    53
  448    78    78
  449    65    65
  450    98    98
  451    65    65
  452    25    25
  453    12    12
  454    41    41
  455    26    26
  456    87    87
  457     8     8
  458    98    98
  459    64    64
  460    50    50
  461    18    18
  462    45    45
  463    83    83
  464    64    64
  465     2     2
  466    91    91
  467    35    35
  468    49    49
  469    42    42
  470    41    41
  471    53    53
  472    54    54
  473    86    86
  474   100   100
  475    42    42
  476    82    82
  477    70    70
  478    11    11
  479    58    58
  480    84    84
  481    62    62
  482    94    94
  483    12    12
  484    30    30
  485    62    62
  486    99    99
  487   100   100
  488    25    25
  489    67    67
  490    89    89
  491    80    80
  492    87    87
  493    39    39
  494    49    49
  495    67    67
  496    16    16
  497    29    29
  498    58    58
  499    21    21
  500    87    87
16751
